662457
1,72,63,32,118,49,71,140,135,83,157,74,39,207,67,163,127,147,43,31,178,199,98,42,160,113,73,209,126,70,86,218,206,136,195,119,193,84,57,95,79,167,188,181,173,148,131,124,85,123,25,61,182,80,132,149,115,2,82,158,77,222,41,128,106,141,219,24,66,190,99,105,216,100,53,92,18,56,54,175,202,121,180,103,187,12,146,88,228,109,90,186,171,150,170,142,4,21,217,153,129,33,224,38,203,6,104,230,212,45,204,172,168,93,213,52,221,59,58,139,197,143,11,76,174,29,114,191,152,122,51,177,226,69,23,159,208,3,185,189,16,60,138,8,120,97,194,165,14,110,201,10,198,200,65,154,164,214,46,125,227,19,134,111,48,225,47,17,176,223,44,64,220,13,30,15,137,5,156,211,145,144,26,22,91,96,68,9,166,101,184,116,161,107,89,196,179,192,37,34,205,75,215,78,28,151,50,108,94,35,87,62,102,55,130,81,40,169,27,112,155,133,229,162,36,183,20,117,210,7,1